1582970
73,91,102,29,60,84,42,43,19,78,3,66,23,108,63,9,65,76,8,36,25,37,40,48,10,96,70,35,7,27,11,59,64,87,6,17,49,75,104,101,53,57,103,90,88,30,71,56,74,85,26,68,69,13,38,46,98,12,20,47,55,5,94,31,50,83,58,1,80,62,2,82,24,15,106,93,45,28,51,33,100,97,34,4,0,81,44,89,22,14,21,72,105,54,39,67,77,32,107,41,18,61,86,95,92,99,52,16,79,73